####C     (P1 from emsl)
    5   4    2   0
    8     
       6665.0000000    0.000691583963 
       1000.0000000    0.005325796153
        228.0000000    0.027060721042 
         64.7100000    0.101656846141
         21.0600000    0.274574823617 
          7.4950000    0.448294318924
          2.7970000    0.284902610715 
          0.5215000    0.015194859206
    8                                 
       6665.0000000   -0.000293269653
       1000.0000000   -0.002318035474 
        228.0000000   -0.011499786039
         64.7100000   -0.046826727010 
         21.0600000   -0.128466168750
          7.4950000   -0.301266272463 
          2.7970000   -0.255630702330
          0.5215000    1.093793361012
    1                                
          4.5300000    1.000000000000
    1                                
          0.1596000    1.000000000000
    1                                
          0.0469000    1.000000000000
    3                                
          9.4390000    0.056979251590
          2.0020000    0.313207211501
          0.5456000    0.760376741738
    1                                
         14.5570000    1.000000000000
    1                                
          0.1517000    1.000000000000
    1                                
          0.0404100    1.000000000000
    1                                
          0.5500000    1.000000000000
    1                                
          0.1510000    1.000000000000

H  (P1 from esml)
    4  3  2  0
    1   
      0.3258000           1.0000000
    5   
      33.8700000          0.0060680
      5.0950000           0.0453080
      1.1590000           0.2028220
      0.3258000           0.5039030
      0.1027000           0.3834210
    1   
      0.1027000           1.0000000
    1   
      0.0252600           1.0000000
    1   
      1.4070000           1.0000000
    1   
      0.3880000           1.0000000
    1   
      0.1020000           1.0000000
    1   
      1.0570000           1.0000000
    1   
      0.2470000           1.0000000



C  (P1 from esml)
    5  4  3  2
    10   
      8236.0000           0.0005310
      1235.0000           0.0041080
      280.8000            0.0210870
      79.27000            0.0818530
      25.59000            0.2348170
      8.997000            0.4344010
      3.319000            0.3461290
      0.9059000           0.0393780
      0.3643000          -0.0089830
      0.1285000           0.0023850
    1   
      0.9059000           1.0000000
    10   
      8236.0000          -0.0001130
      1235.0000          -0.0008780
      280.8000           -0.0045400
      79.27000           -0.0181330
      25.59000           -0.0557600
      8.997000           -0.1268950
      3.319000           -0.1703520
      0.9059000           0.1403820
      0.3643000           0.5986840
      0.1285000           0.3953890
    1   
      0.1285000           1.0000000
    1   
      0.0440200           1.0000000
    1   
      0.3827000           1.0000000
    5   
      18.71000            0.0140310
      4.133000            0.0868660
      1.200000            0.2902160
      0.3827000           0.5010080
      0.1209000           0.3434060
    1   
      0.1209000           1.0000000
    1   
      0.0356900           1.0000000
    1   
      1.0970000           1.0000000
    1   
      0.3180000           1.0000000
    1   
      0.1000000           1.0000000
    1   
      0.7610000           1.0000000
    1   
      0.2680000           1.0000000



O  (P1 from esml)
    5  4  3  2
    10   
      15330.0000          0.0005080
      2299.0000           0.0039290
      522.4000            0.0202430
      147.3000            0.0791810
      47.55000            0.2306870
      16.76000            0.4331180
      6.207000            0.3502600
      1.752000            0.0427280
      0.6882000          -0.0081540
      0.2384000           0.0023810
    1   
      1.7520000           1.0000000
    10   
      15330.0000         -0.0001150
      2299.0000          -0.0008950
      522.4000           -0.0046360
      147.3000           -0.0187240
      47.55000           -0.0584630
      16.76000           -0.1364630
      6.207000           -0.1757400
      1.752000            0.1609340
      0.6882000           0.6034180
      0.2384000           0.3787650
    1   
      0.2384000           1.0000000
    1   
      0.0737600           1.0000000
    1   
      0.7156000           1.0000000
    5   
      34.46000            0.0159280
      7.749000            0.0997400
      2.280000            0.3104920
      0.7156000           0.4910260
      0.2140000           0.3363370
    1   
      0.2140000           1.0000000
    1   
      0.0597400           1.0000000
    1   
      2.3140000           1.0000000
    1   
      0.6450000           1.0000000
    1   
      0.2140000           1.0000000
    1   
      1.4280000           1.0000000
    1   
      0.5000000           1.0000000

